N = 9;
Capacity = 9;
Demand = [3, 1, 4, 9, 2, 1, 2, 8, 3];
Distance = [|
  0, 16, 52, 31, 31, 9, 26, 65, 48, 44
| 16, 0, 68, 41, 45, 24, 32, 64, 63, 59
| 52, 68, 0, 52, 27, 47, 50, 97, 36, 11
| 31, 41, 52, 0, 45, 23, 54, 46, 27, 49
| 31, 45, 27, 45, 0, 29, 23, 89, 44, 16
| 9, 24, 47, 23, 29, 0, 31, 61, 39, 39
| 26, 32, 50, 54, 23, 31, 0, 91, 63, 38
| 65, 64, 97, 46, 89, 61, 91, 0, 67, 95
| 48, 63, 36, 27, 44, 39, 63, 67, 0, 39
| 44, 59, 11, 49, 16, 39, 38, 95, 39, 0
|];
